unsat
(:cnf-encoding-aux-vars   148
 :eliminated-applications 3
 :eliminated-vars         124
 :max-memory              19.55
 :memory                  18.75
 :nlsat-conflicts         32
 :nlsat-decisions         125
 :nlsat-learned-added     31
 :nlsat-propagations      547
 :num-allocs              38892
 :rlimit-count            134845
 :time                    0.04
 :total-time              0.06)
